100
150
100
100
99
99
99
98
97
97
96
96
96
95
94
94
94
93
93
93
91
90
89
87
87
86
85
84
83
83
82
81
80
80
80
79
79
78
78
78
78
77
76
75
74
72
72
72
71
70
70
69
67
66
66
63
62
60
60
57
56
56
56
56
53
52
52
50
50
48
48
45
44
44
44
44
43
40
38
38
38
37
37
37
36
36
35
33
32
30
30
28
28
27
27
26
26
25
24
23
22
22
